RT is False
Default write of storage_offers_DA.csv just to have a file (but constraint should be inactive)
Reading model...
...model read.
creating competitive generators file...
...competitive generators recorded.
Loading data...
.. day-ahead data with real-time VRE data read.
Compiling instance...
...instance created.
Creating Offer Mitigation (model will solve as dispatch if TRUE)...
NOTE: storage offers will not be mitigated
...storage offer mitigation file created
Converting model to MPEC...
...converted
NOTE: initial MIP solve with only storage competitive to get feasible solution
Solving...

Welcome to IBM(R) ILOG(R) CPLEX(R) Interactive Optimizer 12.9.0.0
  with Simplex, Mixed Integer & Barrier Optimizers
5725-A06 5725-A29 5724-Y48 5724-Y49 5724-Y54 5724-Y55 5655-Y21
Copyright IBM Corp. 1988, 2019.  All Rights Reserved.

Type 'help' for a list of available commands.
Type 'help' followed by a command name for more
information on commands.

CPLEX> Logfile 'cplex.log' closed.
Logfile 'C:\Users\llavin\Desktop\test919\logs\tmp8kaz7e5w.cplex.log' open.
CPLEX> New value for parallel optimization mode: -1
CPLEX> New value for mixed integer optimality gap tolerance: 0.01
CPLEX> New value for integrality tolerance: 1e-09
CPLEX> New value for feasibility tolerance: 0.01
CPLEX> New value for deterministic time limit in ticks: 75000
CPLEX> Problem 'C:\Users\llavin\Desktop\test919\logs\tmpdvxh7jwd.pyomo.lp' read.
Read time = 0.23 sec. (14.73 ticks)
CPLEX> Problem name         : C:\Users\llavin\Desktop\test919\logs\tmpdvxh7jwd.pyomo.lp
Objective sense      : Maximize
Variables            :   53805  [Nneg: 1,  Box: 22000,  Free: 4464,
                                 Binary: 27340]
Objective nonzeros   :    9029
Linear constraints   :  123205  [Less: 41346,  Greater: 59096,  Equal: 22763]
  Nonzeros           :  291753
  RHS nonzeros       :   67491

Variables            : Min LB: -5000.000        Max UB: 1000000.       
Objective nonzeros   : Min   : 0.008333333      Max   : 2500.000       
Linear constraints   :
  Nonzeros           : Min   : 0.008333333      Max   : 1000000.       
  RHS nonzeros       : Min   : 0.008333333      Max   : 1000000.       
CPLEX> CPXPARAM_Parallel                                -1
CPXPARAM_Simplex_Tolerances_Feasibility          0.01
CPXPARAM_DetTimeLimit                            75000
CPXPARAM_MIP_Tolerances_MIPGap                   0.01
CPXPARAM_MIP_Tolerances_Integrality              1.0000000000000001e-09
Tried aggregator 3 times.
MIP Presolve eliminated 88659 rows and 18983 columns.
MIP Presolve added 3378 rows and 0 columns.
MIP Presolve modified 24832 coefficients.
Aggregator did 12974 substitutions.
Reduced MIP has 24950 rows, 21292 columns, and 71158 nonzeros.
Reduced MIP has 8413 binaries, 0 generals, 0 SOSs, and 0 indicators.
Presolve time = 0.28 sec. (173.43 ticks)
Probing fixed 382 vars, tightened 2824 bounds.
Probing time = 1.25 sec. (910.37 ticks)
Tried aggregator 2 times.
MIP Presolve eliminated 866 rows and 769 columns.
MIP Presolve modified 2213 coefficients.
Aggregator did 41 substitutions.
Reduced MIP has 24043 rows, 20482 columns, and 68524 nonzeros.
Reduced MIP has 8029 binaries, 0 generals, 0 SOSs, and 0 indicators.
Presolve time = 0.11 sec. (69.17 ticks)
Probing fixed 4 vars, tightened 10 bounds.
Probing time = 0.19 sec. (119.31 ticks)
Clique table members: 9356.
MIP emphasis: balance optimality and feasibility.
MIP search method: dynamic search.
Parallel mode: opportunistic, using up to 32 threads.
Root relaxation solution time = 0.36 sec. (274.77 ticks)

        Nodes                                         Cuts/
   Node  Left     Objective  IInf  Best Integer    Best Bound    ItCnt     Gap

      0     0     3979.2426  1643                   3979.2426     6919         
      0     0     3979.2426   599                   Cuts: 775     7252         
      0     0     3979.1011   522                   Cuts: 371     7470         
      0     0     3978.9596   417                   Cuts: 252     7603         
      0     0     3978.9596   338                   Cuts: 189     7719         
      0     0     3978.9596   285                   Cuts: 158     7783         
      0     0     3978.9596   252                    Cuts: 95     7819         
      0     0     3978.9596   236                    Cuts: 67     7852         
      0     0     3978.9596   231                    Cuts: 37     7870         
*     0+    0                         3965.2769     3965.2769             0.00%
      0     0        cutoff           3965.2769     3965.2769     7870    0.00%
Elapsed time = 6.16 sec. (4445.83 ticks, tree = 0.01 MB, solutions = 1)

Clique cuts applied:  10
Implied bound cuts applied:  22
Flow cuts applied:  410
Mixed integer rounding cuts applied:  12
Gomory fractional cuts applied:  25

Root node processing (before b&c):
  Real time             =    6.17 sec. (4447.79 ticks)
Parallel b&c, 32 threads:
  Real time             =    0.00 sec. (0.00 ticks)
  Sync time (average)   =    0.00 sec.
  Wait time (average)   =    0.00 sec.
                          ------------
Total (root+branch&cut) =    6.17 sec. (4447.79 ticks)

Solution pool: 1 solution saved.

MIP - Integer optimal solution:  Objective =  3.9652768587e+03
Solution time =    6.20 sec.  Iterations = 7870  Nodes = 0
Deterministic time = 4447.94 ticks  (717.06 ticks/sec)

CPLEX> Incumbent solution written to file 'C:\Users\llavin\Desktop\test919\logs\tmp7vmwkhtf.cplex.sol'.
CPLEX> NOTE: no warmstart specified for MIP iteration, default behavior is true
NOTE: resolving with all competitive generators using storage-only solution to warmstart
Solving...

Welcome to IBM(R) ILOG(R) CPLEX(R) Interactive Optimizer 12.9.0.0
  with Simplex, Mixed Integer & Barrier Optimizers
5725-A06 5725-A29 5724-Y48 5724-Y49 5724-Y54 5724-Y55 5655-Y21
Copyright IBM Corp. 1988, 2019.  All Rights Reserved.

Type 'help' for a list of available commands.
Type 'help' followed by a command name for more
information on commands.

CPLEX> Logfile 'cplex.log' closed.
Logfile 'C:\Users\llavin\Desktop\test919\logs\tmp819qnt0n.cplex.log' open.
CPLEX> New value for parallel optimization mode: -1
CPLEX> New value for mixed integer optimality gap tolerance: 0.01
CPLEX> New value for integrality tolerance: 1e-09
CPLEX> New value for feasibility tolerance: 0.01
CPLEX> New value for deterministic time limit in ticks: 75000
CPLEX> Problem 'C:\Users\llavin\Desktop\test919\logs\tmpi8bdwx45.pyomo.lp' read.
Read time = 0.24 sec. (14.75 ticks)
CPLEX> MIP start file 'C:\Users\llavin\Desktop\test919\logs\tmpwvp8zvt9.cplex.mst' read.
CPLEX> Problem name         : C:\Users\llavin\Desktop\test919\logs\tmpi8bdwx45.pyomo.lp
Objective sense      : Maximize
Variables            :   54525  [Nneg: 1,  Box: 22720,  Free: 4464,
                                 Binary: 27340]
Objective nonzeros   :    9725
Linear constraints   :  123205  [Less: 41346,  Greater: 59096,  Equal: 22763]
  Nonzeros           :  291753
  RHS nonzeros       :   67491

Variables            : Min LB: -5000.000        Max UB: 1000000.       
Objective nonzeros   : Min   : 0.008333333      Max   : 2500.000       
Linear constraints   :
  Nonzeros           : Min   : 0.008333333      Max   : 1000000.       
  RHS nonzeros       : Min   : 0.008333333      Max   : 1000000.       
CPLEX> CPXPARAM_Parallel                                -1
CPXPARAM_Simplex_Tolerances_Feasibility          0.01
CPXPARAM_DetTimeLimit                            75000
CPXPARAM_MIP_Tolerances_MIPGap                   0.01
CPXPARAM_MIP_Tolerances_Integrality              1.0000000000000001e-09
Warning:  No solution found from 1 MIP starts.
Retaining values of one MIP start for possible repair.
Tried aggregator 3 times.
MIP Presolve eliminated 88659 rows and 19703 columns.
MIP Presolve added 3378 rows and 0 columns.
MIP Presolve modified 24832 coefficients.
Aggregator did 12974 substitutions.
Reduced MIP has 24950 rows, 21292 columns, and 71158 nonzeros.
Reduced MIP has 8413 binaries, 0 generals, 0 SOSs, and 0 indicators.
Presolve time = 0.30 sec. (173.79 ticks)
Probing fixed 382 vars, tightened 2824 bounds.
Probing time = 1.25 sec. (910.37 ticks)
Tried aggregator 2 times.
MIP Presolve eliminated 866 rows and 769 columns.
MIP Presolve modified 2213 coefficients.
Aggregator did 41 substitutions.
Reduced MIP has 24043 rows, 20482 columns, and 68524 nonzeros.
Reduced MIP has 8029 binaries, 0 generals, 0 SOSs, and 0 indicators.
Presolve time = 0.11 sec. (69.18 ticks)
Probing fixed 4 vars, tightened 10 bounds.
Probing time = 0.19 sec. (119.31 ticks)
Clique table members: 9356.
MIP emphasis: balance optimality and feasibility.
MIP search method: dynamic search.
Parallel mode: opportunistic, using up to 32 threads.
Root relaxation solution time = 0.38 sec. (283.55 ticks)

        Nodes                                         Cuts/
   Node  Left     Objective  IInf  Best Integer    Best Bound    ItCnt     Gap

      0     0    72020.8452  1772                  72020.8452     7077         
      0     0    70758.3425   580                   Cuts: 885     7522         
      0     0    70325.0602   460                   Cuts: 478     7727         
      0     0    70303.0439   386                   Cuts: 327     7885         
      0     0    70279.2683   336                   Cuts: 194     7992         
      0     0    70277.0368   308                   Cuts: 151     8075         
      0     0    70277.0368   298                    Cuts: 90     8109         
      0     0    70277.0368   285                    Cuts: 85     8130         
      0     0    70277.0368   275                    Cuts: 59     8154         
      0     0    70277.0368   274                    Cuts: 56     8161         
      0     0    70277.0368   277                    Cuts: 44     8192         
Repair heuristic found nothing.
      0     2    70277.0368   277                 Impl Bds: 4     8192         
Elapsed time = 12.14 sec. (6785.33 ticks, tree = 0.02 MB, solutions = 0)
    398   220    57574.2895   199                  67682.9427    11643         
   1033   236    44310.2501   182                  67116.0657    11802         
   1480   534    43213.2303   190                  67116.0657    18943         
   1925   729    29493.6165   178                  67116.0657    23079         
   2540  1119    36510.7409   172                  67116.0657    28323         
   3431  1979    29493.6165   165                  67116.0657    32728         
*  4451+ 2428                        34952.3465    67116.0657            92.02%
   5395  2487    51018.3538   154    38812.7394    67116.0657    33402   72.92%
   5961  3074    50708.4976   176    43494.6295    67116.0657    35962   54.31%
*  6488  1486      integral     0    49482.2635    67116.0657    36324   35.64%
Elapsed time = 23.91 sec. (9267.31 ticks, tree = 7.12 MB, solutions = 6)
   6583  1044        cutoff          49482.2635    65385.2224    54404   32.14%
   7639   153    53061.1057   140    49482.2635    64889.7029    56154   31.14%
   9853   573    52625.7580   112    49482.2635    63607.0816    57855   28.55%
  12754  3317    51814.0639   100    49482.2635    58207.7245    80933   17.63%
  15607  4249    51277.4424    97    50380.6305    57808.3541    92187   14.74%
  16640  4728        cutoff          50380.6305    57334.7985   110551   13.80%
  18339  5270    50676.8625    80    50380.6305    56927.4223   118477   12.99%
  21138  5439    50676.8329    74    51267.1077    56927.4223   119791   11.04%
  24191  5329    54499.7957    77    51367.3886    56729.3860   141237   10.44%
  27504  6101    52709.3915    84    51367.3886    56729.3860   153233   10.44%
Elapsed time = 80.36 sec. (24304.72 ticks, tree = 50.99 MB, solutions = 21)
  30559  9511    52753.0622    77    51367.3886    56541.6178   179123   10.07%
  33627  7830    54329.2480    77    51367.3886    56541.6178   165527   10.07%
  36475  9790    56057.8376    79    51367.3886    56506.8117   181771   10.01%
  39505 11651    51373.8850    52    51367.3886    56425.9484   196839    9.85%
  42622 16115    51406.0385    83    51367.3886    56392.7113   241317    9.78%
  45639 15755    52136.2010    88    51367.3886    56205.7394   237687    9.42%
  48267 16724        cutoff          51367.3886    56057.8672   248631    9.13%
  49776 18026    54888.8579    68    51367.3886    56057.0679   281982    9.13%
  50814 18552    54793.0140   101    51367.3886    56048.7200   290859    9.11%
  52731 18894    54343.3157   107    51367.3886    56040.2709   299476    9.10%
Elapsed time = 130.77 sec. (33847.38 ticks, tree = 186.33 MB, solutions = 21)
  55246 19034    55059.7519    92    51367.3886    56014.6835   303571    9.05%
  57748 20154    55272.9802    76    51367.3886    55970.9896   345933    8.96%
  60295 20901    55090.1258   102    51367.3886    55961.5215   373443    8.94%
  62671 20901    54664.3367    95    51367.3886    55889.3091   375776    8.80%
  64483 20909    53182.8724    86    51367.3886    55889.3091   376941    8.80%
  65065 20991    infeasible          51367.3886    55623.9126   439585    8.29%
  65555     5    54466.8953   136    51367.3886    55623.9126   439167    8.29%
  66122    43    52067.7648    63    51367.3886    52125.1577   441834    1.48%
  66488    45    51982.0011    87    51367.3886    52125.1577   442054    1.48%
  66658    70    51679.6995    66    51367.3886    52125.1577   443382    1.48%
Elapsed time = 174.52 sec. (48109.98 ticks, tree = 1.36 MB, solutions = 21)

GUB cover cuts applied:  2
Clique cuts applied:  8
Cover cuts applied:  21
Implied bound cuts applied:  8
Flow cuts applied:  312
Mixed integer rounding cuts applied:  70
Gomory fractional cuts applied:  104

Root node processing (before b&c):
  Real time             =    9.97 sec. (6739.74 ticks)
Parallel b&c, 32 threads:
  Real time             =  164.88 sec. (42069.12 ticks)
  Sync time (average)   =    8.81 sec.
  Wait time (average)   =    0.44 sec.
                          ------------
Total (root+branch&cut) =  174.84 sec. (48808.86 ticks)

Solution pool: 21 solutions saved.

MIP - Integer optimal, tolerance (0.01/1e-06):  Objective =  5.1367388639e+04
Current MIP best bound =  5.1766615840e+04 (gap = 399.227, 0.78%)
Solution time =  174.86 sec.  Iterations = 452603  Nodes = 66692 (359)
Deterministic time = 48809.01 ticks  (279.13 ticks/sec)

CPLEX> Incumbent solution written to file 'C:\Users\llavin\Desktop\test919\logs\tmpjwkcwp9h.cplex.sol'.
CPLEX> Exporting results... 
